20 39
11 15 16 17 18
2 4 5 16
1 8 9
7 11 14 15 18 19
1 15
1 8 10 11 15 18
11 15 19
3 14
2 5 14 16
2 10 14
5 9 12 13
0 3 5 6 14 17
10 16 17
10 18
3 7 8 9 11 16
0 3 4 5 6
0 1 8 12 14
0 11 12
0 3 5 13
3 6
